(declare-fun e () String)
(declare-fun c () String)
(declare-fun g () String)
(declare-fun b () String)
(declare-fun d () String)
(declare-fun f () String)
(declare-fun h () String)
(assert (= "b" (str.++ c b)))
(assert (= (str.++ g h "bf" e) (str.++ "cd" f "h")))
(assert (= (str.++ d "f" b h) (str.++ g "g" e)))

(check-sat)
